0 0 0 0
0 1 2 0
0 2 0 0
0 3 0 0
0 4 2 2
0 5 2 8
0 6 2 2
0 7 2 11
0 8 1 8
0 9 0 15
0 10 2 18
0 11 2 24
0 12 2 10
0 13 2 11
0 14 1 19
0 15 2 24
0 16 2 8
0 17 2 34
0 18 2 20
0 19 2 31
0 20 0 18
0 21 2 19
0 22 2 19
0 23 0 30
0 24 2 19
0 25 2 31
0 26 0 29
0 27 2 30
0 28 0 43
0 29 0 41
0 30 2 39
0 31 0 45
